(set-info :smt-lib-version 2.6)
(set-logic UF)
(set-info :source |Benchmarks from the paper: "Extending Sledgehammer with SMT Solvers" by Jasmin Blanchette, Sascha Bohme, and Lawrence C. Paulson, CADE 2011.  Translated to SMT2 by Andrew Reynolds and Morgan Deters.|)
(set-info :category "industrial")
(set-info :status sat)
(declare-sort S1 0)
(declare-sort S2 0)
(declare-sort S3 0)
(declare-sort S4 0)
(declare-sort S5 0)
(declare-sort S6 0)
(declare-sort S7 0)
(declare-sort S8 0)
(declare-sort S9 0)
(declare-sort S10 0)
(declare-sort S11 0)
(declare-sort S12 0)
(declare-sort S13 0)
(declare-sort S14 0)
(declare-sort S15 0)
(declare-sort S16 0)
(declare-sort S17 0)
(declare-sort S18 0)
(declare-sort S19 0)
(declare-sort S20 0)
(declare-sort S21 0)
(declare-sort S22 0)
(declare-sort S23 0)
(declare-sort S24 0)
(declare-sort S25 0)
(declare-sort S26 0)
(declare-sort S27 0)
(declare-sort S28 0)
(declare-sort S29 0)
(declare-sort S30 0)
(declare-sort S31 0)
(declare-sort S32 0)
(declare-sort S33 0)
(declare-sort S34 0)
(declare-sort S35 0)
(declare-sort S36 0)
(declare-sort S37 0)
(declare-sort S38 0)
(declare-sort S39 0)
(declare-sort S40 0)
(declare-sort S41 0)
(declare-sort S42 0)
(declare-sort S43 0)
(declare-sort S44 0)
(declare-sort S45 0)
(declare-sort S46 0)
(declare-sort S47 0)
(declare-sort S48 0)
(declare-sort S49 0)
(declare-sort S50 0)
(declare-sort S51 0)
(declare-sort S52 0)
(declare-sort S53 0)
(declare-sort S54 0)
(declare-sort S55 0)
(declare-sort S56 0)
(declare-sort S57 0)
(declare-sort S58 0)
(declare-sort S59 0)
(declare-fun f1 () S1)
(declare-fun f2 () S1)
(declare-fun f3 (S2 S3) S1)
(declare-fun f4 (S4 S5) S2)
(declare-fun f5 () S4)
(declare-fun f6 (S6 S7) S5)
(declare-fun f7 (S8 S9) S6)
(declare-fun f8 () S8)
(declare-fun f9 () S9)
(declare-fun f10 (S10 S11) S7)
(declare-fun f11 (S12 S13) S10)
(declare-fun f12 () S12)
(declare-fun f13 () S13)
(declare-fun f14 (S14 S2) S11)
(declare-fun f15 (S15 S16) S14)
(declare-fun f16 () S15)
(declare-fun f17 () S16)
(declare-fun f18 () S2)
(declare-fun f19 () S3)
(declare-fun f20 (S17 S3) S3)
(declare-fun f21 (S18 S3) S17)
(declare-fun f22 () S18)
(declare-fun f23 (S19 S20) S3)
(declare-fun f24 () S19)
(declare-fun f25 (S9) S20)
(declare-fun f26 (S21 S9) S22)
(declare-fun f27 () S21)
(declare-fun f28 (S23 S13) S22)
(declare-fun f29 () S23)
(declare-fun f30 (S24 S16) S22)
(declare-fun f31 () S24)
(declare-fun f32 (S25 S26) S1)
(declare-fun f33 (S30 S27) S26)
(declare-fun f34 (S31 S27) S30)
(declare-fun f35 () S31)
(declare-fun f36 (S32 S33) S27)
(declare-fun f37 (S34 S2) S32)
(declare-fun f38 () S34)
(declare-fun f39 (S35 S29) S33)
(declare-fun f40 (S36 S28) S35)
(declare-fun f41 () S36)
(declare-fun f42 (S37 S5) S1)
(declare-fun f43 (S39 S38) S40)
(declare-fun f44 () S39)
(declare-fun f45 (S41 S26) S42)
(declare-fun f46 () S41)
(declare-fun f47 (S43 S27) S1)
(declare-fun f48 (S44 S7) S1)
(declare-fun f49 (S45 S33) S1)
(declare-fun f50 (S46 S11) S1)
(declare-fun f51 (S3) S1)
(declare-fun f52 (S40) S1)
(declare-fun f53 (S42) S1)
(declare-fun f54 (S48 S2) S45)
(declare-fun f55 (S49 S33) S48)
(declare-fun f56 (S50 S2) S49)
(declare-fun f57 (S47) S50)
(declare-fun f58 (S51 S16) S29)
(declare-fun f59 (S52 S9) S51)
(declare-fun f60 (S29) S52)
(declare-fun f61 (S43) S48)
(declare-fun f62 (S53 S27) S43)
(declare-fun f63 (S25) S53)
(declare-fun f64 (S45 S28 S29) S1)
(declare-fun f65 (S46 S16 S2) S1)
(declare-fun f66 (S54 S13) S46)
(declare-fun f67 (S44) S54)
(declare-fun f68 (S55 S9) S44)
(declare-fun f69 (S37) S55)
(declare-fun f70 (S29 S38) S56)
(declare-fun f71 (S38 S20) S1)
(declare-fun f72 (S2) S1)
(declare-fun f73 (S26 S25) S1)
(declare-fun f74 (S25) S25)
(declare-fun f75 (S47) S25)
(declare-fun f76 (S42) S25)
(declare-fun f77 (S20 S57) S1)
(declare-fun f78 (S3) S57)
(declare-fun f79 (S40) S20)
(declare-fun f80 (S9) S1)
(declare-fun f81 (S58 S20) S29)
(declare-fun f82 (S59 S29) S58)
(declare-fun f83 (S29) S59)
(assert (not (= f1 f2)))
(assert (not (= (= (f3 (f4 f5 (f6 (f7 f8 f9) (f10 (f11 f12 f13) (f14 (f15 f16 f17) f18)))) f19) f1) (= (f3 f18 (f20 (f21 f22 f19) (f23 f24 (f25 f9)))) f1))))
(assert (= (f26 f27 f9) (f28 f29 f13)))
(assert (= (f30 f31 f17) (f28 f29 f13)))
(assert (forall ((?v0 S25) (?v1 S26)) (=> (forall ((?v2 S27) (?v3 S2) (?v4 S28) (?v5 S29)) (= (f32 ?v0 (f33 (f34 f35 ?v2) (f36 (f37 f38 ?v3) (f39 (f40 f41 ?v4) ?v5)))) f1)) (= (f32 ?v0 ?v1) f1))))
(assert (forall ((?v0 S37) (?v1 S5)) (=> (forall ((?v2 S9) (?v3 S13) (?v4 S16) (?v5 S2)) (= (f42 ?v0 (f6 (f7 f8 ?v2) (f10 (f11 f12 ?v3) (f14 (f15 f16 ?v4) ?v5)))) f1)) (= (f42 ?v0 ?v1) f1))))
(assert (forall ((?v0 S26)) (=> (forall ((?v1 S27) (?v2 S2) (?v3 S28) (?v4 S29)) (=> (= ?v0 (f33 (f34 f35 ?v1) (f36 (f37 f38 ?v2) (f39 (f40 f41 ?v3) ?v4)))) false)) false)))
(assert (forall ((?v0 S5)) (=> (forall ((?v1 S9) (?v2 S13) (?v3 S16) (?v4 S2)) (=> (= ?v0 (f6 (f7 f8 ?v1) (f10 (f11 f12 ?v2) (f14 (f15 f16 ?v3) ?v4)))) false)) false)))
(assert (forall ((?v0 S3) (?v1 S3) (?v2 S3)) (let ((?v_0 (f21 f22 ?v0))) (= (f20 (f21 f22 (f20 ?v_0 ?v1)) ?v2) (f20 ?v_0 (f20 (f21 f22 ?v1) ?v2))))))
(assert (forall ((?v0 S20) (?v1 S20)) (= (= (f23 f24 ?v0) (f23 f24 ?v1)) (= ?v0 ?v1))))
(assert (forall ((?v0 S38) (?v1 S38)) (= (= (f43 f44 ?v0) (f43 f44 ?v1)) (= ?v0 ?v1))))
(assert (forall ((?v0 S26) (?v1 S26)) (= (= (f45 f46 ?v0) (f45 f46 ?v1)) (= ?v0 ?v1))))
(assert (forall ((?v0 S16) (?v1 S16)) (=> (not (= (f30 f31 ?v0) (f30 f31 ?v1))) (= (= ?v0 ?v1) false))))
(assert (forall ((?v0 S13) (?v1 S13)) (=> (not (= (f28 f29 ?v0) (f28 f29 ?v1))) (= (= ?v0 ?v1) false))))
(assert (forall ((?v0 S9) (?v1 S9)) (=> (not (= (f26 f27 ?v0) (f26 f27 ?v1))) (= (= ?v0 ?v1) false))))
(assert (forall ((?v0 S43) (?v1 S27)) (=> (forall ((?v2 S2) (?v3 S28) (?v4 S29)) (= (f47 ?v0 (f36 (f37 f38 ?v2) (f39 (f40 f41 ?v3) ?v4))) f1)) (= (f47 ?v0 ?v1) f1))))
(assert (forall ((?v0 S25) (?v1 S26)) (=> (forall ((?v2 S27) (?v3 S2) (?v4 S33)) (= (f32 ?v0 (f33 (f34 f35 ?v2) (f36 (f37 f38 ?v3) ?v4))) f1)) (= (f32 ?v0 ?v1) f1))))
(assert (forall ((?v0 S44) (?v1 S7)) (=> (forall ((?v2 S13) (?v3 S16) (?v4 S2)) (= (f48 ?v0 (f10 (f11 f12 ?v2) (f14 (f15 f16 ?v3) ?v4))) f1)) (= (f48 ?v0 ?v1) f1))))
(assert (forall ((?v0 S37) (?v1 S5)) (=> (forall ((?v2 S9) (?v3 S13) (?v4 S11)) (= (f42 ?v0 (f6 (f7 f8 ?v2) (f10 (f11 f12 ?v3) ?v4))) f1)) (= (f42 ?v0 ?v1) f1))))
(assert (forall ((?v0 S27)) (=> (forall ((?v1 S2) (?v2 S28) (?v3 S29)) (=> (= ?v0 (f36 (f37 f38 ?v1) (f39 (f40 f41 ?v2) ?v3))) false)) false)))
(assert (forall ((?v0 S26)) (=> (forall ((?v1 S27) (?v2 S2) (?v3 S33)) (=> (= ?v0 (f33 (f34 f35 ?v1) (f36 (f37 f38 ?v2) ?v3))) false)) false)))
(assert (forall ((?v0 S7)) (=> (forall ((?v1 S13) (?v2 S16) (?v3 S2)) (=> (= ?v0 (f10 (f11 f12 ?v1) (f14 (f15 f16 ?v2) ?v3))) false)) false)))
(assert (forall ((?v0 S5)) (=> (forall ((?v1 S9) (?v2 S13) (?v3 S11)) (=> (= ?v0 (f6 (f7 f8 ?v1) (f10 (f11 f12 ?v2) ?v3))) false)) false)))
(assert (forall ((?v0 S43)) (= (forall ((?v1 S27)) (= (f47 ?v0 ?v1) f1)) (forall ((?v1 S2) (?v2 S33)) (= (f47 ?v0 (f36 (f37 f38 ?v1) ?v2)) f1)))))
(assert (forall ((?v0 S25)) (= (forall ((?v1 S26)) (= (f32 ?v0 ?v1) f1)) (forall ((?v1 S27) (?v2 S27)) (= (f32 ?v0 (f33 (f34 f35 ?v1) ?v2)) f1)))))
(assert (forall ((?v0 S45)) (= (forall ((?v1 S33)) (= (f49 ?v0 ?v1) f1)) (forall ((?v1 S28) (?v2 S29)) (= (f49 ?v0 (f39 (f40 f41 ?v1) ?v2)) f1)))))
(assert (forall ((?v0 S46)) (= (forall ((?v1 S11)) (= (f50 ?v0 ?v1) f1)) (forall ((?v1 S16) (?v2 S2)) (= (f50 ?v0 (f14 (f15 f16 ?v1) ?v2)) f1)))))
(assert (forall ((?v0 S44)) (= (forall ((?v1 S7)) (= (f48 ?v0 ?v1) f1)) (forall ((?v1 S13) (?v2 S11)) (= (f48 ?v0 (f10 (f11 f12 ?v1) ?v2)) f1)))))
(assert (forall ((?v0 S37)) (= (forall ((?v1 S5)) (= (f42 ?v0 ?v1) f1)) (forall ((?v1 S9) (?v2 S7)) (= (f42 ?v0 (f6 (f7 f8 ?v1) ?v2)) f1)))))
(assert (forall ((?v0 S2) (?v1 S33) (?v2 S2) (?v3 S33)) (=> (= (f36 (f37 f38 ?v0) ?v1) (f36 (f37 f38 ?v2) ?v3)) (=> (=> (= ?v0 ?v2) (=> (= ?v1 ?v3) false)) false))))
(assert (forall ((?v0 S27) (?v1 S27) (?v2 S27) (?v3 S27)) (=> (= (f33 (f34 f35 ?v0) ?v1) (f33 (f34 f35 ?v2) ?v3)) (=> (=> (= ?v0 ?v2) (=> (= ?v1 ?v3) false)) false))))
(assert (forall ((?v0 S28) (?v1 S29) (?v2 S28) (?v3 S29)) (=> (= (f39 (f40 f41 ?v0) ?v1) (f39 (f40 f41 ?v2) ?v3)) (=> (=> (= ?v0 ?v2) (=> (= ?v1 ?v3) false)) false))))
(assert (forall ((?v0 S16) (?v1 S2) (?v2 S16) (?v3 S2)) (=> (= (f14 (f15 f16 ?v0) ?v1) (f14 (f15 f16 ?v2) ?v3)) (=> (=> (= ?v0 ?v2) (=> (= ?v1 ?v3) false)) false))))
(assert (forall ((?v0 S13) (?v1 S11) (?v2 S13) (?v3 S11)) (=> (= (f10 (f11 f12 ?v0) ?v1) (f10 (f11 f12 ?v2) ?v3)) (=> (=> (= ?v0 ?v2) (=> (= ?v1 ?v3) false)) false))))
(assert (forall ((?v0 S9) (?v1 S7) (?v2 S9) (?v3 S7)) (=> (= (f6 (f7 f8 ?v0) ?v1) (f6 (f7 f8 ?v2) ?v3)) (=> (=> (= ?v0 ?v2) (=> (= ?v1 ?v3) false)) false))))
(assert (forall ((?v0 S2) (?v1 S33) (?v2 S2) (?v3 S33)) (= (= (f36 (f37 f38 ?v0) ?v1) (f36 (f37 f38 ?v2) ?v3)) (and (= ?v0 ?v2) (= ?v1 ?v3)))))
(assert (forall ((?v0 S27) (?v1 S27) (?v2 S27) (?v3 S27)) (= (= (f33 (f34 f35 ?v0) ?v1) (f33 (f34 f35 ?v2) ?v3)) (and (= ?v0 ?v2) (= ?v1 ?v3)))))
(assert (forall ((?v0 S28) (?v1 S29) (?v2 S28) (?v3 S29)) (= (= (f39 (f40 f41 ?v0) ?v1) (f39 (f40 f41 ?v2) ?v3)) (and (= ?v0 ?v2) (= ?v1 ?v3)))))
(assert (forall ((?v0 S16) (?v1 S2) (?v2 S16) (?v3 S2)) (= (= (f14 (f15 f16 ?v0) ?v1) (f14 (f15 f16 ?v2) ?v3)) (and (= ?v0 ?v2) (= ?v1 ?v3)))))
(assert (forall ((?v0 S13) (?v1 S11) (?v2 S13) (?v3 S11)) (= (= (f10 (f11 f12 ?v0) ?v1) (f10 (f11 f12 ?v2) ?v3)) (and (= ?v0 ?v2) (= ?v1 ?v3)))))
(assert (forall ((?v0 S9) (?v1 S7) (?v2 S9) (?v3 S7)) (= (= (f6 (f7 f8 ?v0) ?v1) (f6 (f7 f8 ?v2) ?v3)) (and (= ?v0 ?v2) (= ?v1 ?v3)))))
(assert (forall ((?v0 S22)) (exists ((?v1 S16)) (= (f30 f31 ?v1) ?v0))))
(assert (forall ((?v0 S22)) (exists ((?v1 S13)) (= (f28 f29 ?v1) ?v0))))
(assert (forall ((?v0 S22)) (exists ((?v1 S9)) (= (f26 f27 ?v1) ?v0))))
(assert (forall ((?v0 S27)) (=> (forall ((?v1 S2) (?v2 S33)) (=> (= ?v0 (f36 (f37 f38 ?v1) ?v2)) false)) false)))
(assert (forall ((?v0 S26)) (=> (forall ((?v1 S27) (?v2 S27)) (=> (= ?v0 (f33 (f34 f35 ?v1) ?v2)) false)) false)))
(assert (forall ((?v0 S33)) (=> (forall ((?v1 S28) (?v2 S29)) (=> (= ?v0 (f39 (f40 f41 ?v1) ?v2)) false)) false)))
(assert (forall ((?v0 S11)) (=> (forall ((?v1 S16) (?v2 S2)) (=> (= ?v0 (f14 (f15 f16 ?v1) ?v2)) false)) false)))
(assert (forall ((?v0 S7)) (=> (forall ((?v1 S13) (?v2 S11)) (=> (= ?v0 (f10 (f11 f12 ?v1) ?v2)) false)) false)))
(assert (forall ((?v0 S5)) (=> (forall ((?v1 S9) (?v2 S7)) (=> (= ?v0 (f6 (f7 f8 ?v1) ?v2)) false)) false)))
(assert (forall ((?v0 S27)) (=> (forall ((?v1 S2) (?v2 S33)) (=> (= ?v0 (f36 (f37 f38 ?v1) ?v2)) false)) false)))
(assert (forall ((?v0 S26)) (=> (forall ((?v1 S27) (?v2 S27)) (=> (= ?v0 (f33 (f34 f35 ?v1) ?v2)) false)) false)))
(assert (forall ((?v0 S33)) (=> (forall ((?v1 S28) (?v2 S29)) (=> (= ?v0 (f39 (f40 f41 ?v1) ?v2)) false)) false)))
(assert (forall ((?v0 S11)) (=> (forall ((?v1 S16) (?v2 S2)) (=> (= ?v0 (f14 (f15 f16 ?v1) ?v2)) false)) false)))
(assert (forall ((?v0 S7)) (=> (forall ((?v1 S13) (?v2 S11)) (=> (= ?v0 (f10 (f11 f12 ?v1) ?v2)) false)) false)))
(assert (forall ((?v0 S5)) (=> (forall ((?v1 S9) (?v2 S7)) (=> (= ?v0 (f6 (f7 f8 ?v1) ?v2)) false)) false)))
(assert (forall ((?v0 S43)) (= (exists ((?v1 S27)) (= (f47 ?v0 ?v1) f1)) (exists ((?v1 S2) (?v2 S33)) (= (f47 ?v0 (f36 (f37 f38 ?v1) ?v2)) f1)))))
(assert (forall ((?v0 S25)) (= (exists ((?v1 S26)) (= (f32 ?v0 ?v1) f1)) (exists ((?v1 S27) (?v2 S27)) (= (f32 ?v0 (f33 (f34 f35 ?v1) ?v2)) f1)))))
(assert (forall ((?v0 S45)) (= (exists ((?v1 S33)) (= (f49 ?v0 ?v1) f1)) (exists ((?v1 S28) (?v2 S29)) (= (f49 ?v0 (f39 (f40 f41 ?v1) ?v2)) f1)))))
(assert (forall ((?v0 S46)) (= (exists ((?v1 S11)) (= (f50 ?v0 ?v1) f1)) (exists ((?v1 S16) (?v2 S2)) (= (f50 ?v0 (f14 (f15 f16 ?v1) ?v2)) f1)))))
(assert (forall ((?v0 S44)) (= (exists ((?v1 S7)) (= (f48 ?v0 ?v1) f1)) (exists ((?v1 S13) (?v2 S11)) (= (f48 ?v0 (f10 (f11 f12 ?v1) ?v2)) f1)))))
(assert (forall ((?v0 S37)) (= (exists ((?v1 S5)) (= (f42 ?v0 ?v1) f1)) (exists ((?v1 S9) (?v2 S7)) (= (f42 ?v0 (f6 (f7 f8 ?v1) ?v2)) f1)))))
(assert (forall ((?v0 S20)) (= (= (f51 (f23 f24 ?v0)) f1) false)))
(assert (forall ((?v0 S38)) (= (= (f52 (f43 f44 ?v0)) f1) false)))
(assert (forall ((?v0 S26)) (= (= (f53 (f45 f46 ?v0)) f1) false)))
(assert (forall ((?v0 S9) (?v1 S13) (?v2 S16) (?v3 S47) (?v4 S2) (?v5 S28) (?v6 S29) (?v7 S2) (?v8 S28) (?v9 S29)) (let ((?v_0 (f26 f27 ?v0))) (=> (= ?v_0 (f28 f29 ?v1)) (=> (= ?v_0 (f30 f31 ?v2)) (=> (= (f49 (f54 (f55 (f56 (f57 ?v3) (f4 f5 (f6 (f7 f8 ?v0) (f10 (f11 f12 ?v1) (f14 (f15 f16 ?v2) ?v4))))) (f39 (f40 f41 ?v5) ?v6)) ?v7) (f39 (f40 f41 ?v8) ?v9)) f1) (exists ((?v10 S29)) (= (f49 (f54 (f55 (f56 (f57 ?v3) ?v4) (f39 (f40 f41 ?v5) (f58 (f59 (f60 ?v6) ?v0) ?v2))) ?v7) (f39 (f40 f41 ?v8) ?v10)) f1))))))))
(assert (forall ((?v0 S43) (?v1 S2) (?v2 S33)) (=> (= (f47 ?v0 (f36 (f37 f38 ?v1) ?v2)) f1) (= (f49 (f54 (f61 ?v0) ?v1) ?v2) f1))))
(assert (forall ((?v0 S25) (?v1 S27) (?v2 S27)) (=> (= (f32 ?v0 (f33 (f34 f35 ?v1) ?v2)) f1) (= (f47 (f62 (f63 ?v0) ?v1) ?v2) f1))))
(assert (forall ((?v0 S45) (?v1 S28) (?v2 S29)) (=> (= (f49 ?v0 (f39 (f40 f41 ?v1) ?v2)) f1) (= (f64 ?v0 ?v1 ?v2) f1))))
(assert (forall ((?v0 S46) (?v1 S16) (?v2 S2)) (=> (= (f50 ?v0 (f14 (f15 f16 ?v1) ?v2)) f1) (= (f65 ?v0 ?v1 ?v2) f1))))
(assert (forall ((?v0 S44) (?v1 S13) (?v2 S11)) (=> (= (f48 ?v0 (f10 (f11 f12 ?v1) ?v2)) f1) (= (f50 (f66 (f67 ?v0) ?v1) ?v2) f1))))
(assert (forall ((?v0 S37) (?v1 S9) (?v2 S7)) (=> (= (f42 ?v0 (f6 (f7 f8 ?v1) ?v2)) f1) (= (f48 (f68 (f69 ?v0) ?v1) ?v2) f1))))
(assert (forall ((?v0 S43) (?v1 S2) (?v2 S33)) (=> (= (f49 (f54 (f61 ?v0) ?v1) ?v2) f1) (= (f47 ?v0 (f36 (f37 f38 ?v1) ?v2)) f1))))
(assert (forall ((?v0 S25) (?v1 S27) (?v2 S27)) (=> (= (f47 (f62 (f63 ?v0) ?v1) ?v2) f1) (= (f32 ?v0 (f33 (f34 f35 ?v1) ?v2)) f1))))
(assert (forall ((?v0 S45) (?v1 S28) (?v2 S29)) (=> (= (f64 ?v0 ?v1 ?v2) f1) (= (f49 ?v0 (f39 (f40 f41 ?v1) ?v2)) f1))))
(assert (forall ((?v0 S46) (?v1 S16) (?v2 S2)) (=> (= (f65 ?v0 ?v1 ?v2) f1) (= (f50 ?v0 (f14 (f15 f16 ?v1) ?v2)) f1))))
(assert (forall ((?v0 S44) (?v1 S13) (?v2 S11)) (=> (= (f50 (f66 (f67 ?v0) ?v1) ?v2) f1) (= (f48 ?v0 (f10 (f11 f12 ?v1) ?v2)) f1))))
(assert (forall ((?v0 S37) (?v1 S9) (?v2 S7)) (=> (= (f48 (f68 (f69 ?v0) ?v1) ?v2) f1) (= (f42 ?v0 (f6 (f7 f8 ?v1) ?v2)) f1))))
(assert (forall ((?v0 S43) (?v1 S2) (?v2 S33)) (=> (= (f49 (f54 (f61 ?v0) ?v1) ?v2) f1) (=> (=> (= (f47 ?v0 (f36 (f37 f38 ?v1) ?v2)) f1) false) false))))
(assert (forall ((?v0 S25) (?v1 S27) (?v2 S27)) (=> (= (f47 (f62 (f63 ?v0) ?v1) ?v2) f1) (=> (=> (= (f32 ?v0 (f33 (f34 f35 ?v1) ?v2)) f1) false) false))))
(assert (forall ((?v0 S45) (?v1 S28) (?v2 S29)) (=> (= (f64 ?v0 ?v1 ?v2) f1) (=> (=> (= (f49 ?v0 (f39 (f40 f41 ?v1) ?v2)) f1) false) false))))
(assert (forall ((?v0 S46) (?v1 S16) (?v2 S2)) (=> (= (f65 ?v0 ?v1 ?v2) f1) (=> (=> (= (f50 ?v0 (f14 (f15 f16 ?v1) ?v2)) f1) false) false))))
(assert (forall ((?v0 S44) (?v1 S13) (?v2 S11)) (=> (= (f50 (f66 (f67 ?v0) ?v1) ?v2) f1) (=> (=> (= (f48 ?v0 (f10 (f11 f12 ?v1) ?v2)) f1) false) false))))
(assert (forall ((?v0 S37) (?v1 S9) (?v2 S7)) (=> (= (f48 (f68 (f69 ?v0) ?v1) ?v2) f1) (=> (=> (= (f42 ?v0 (f6 (f7 f8 ?v1) ?v2)) f1) false) false))))
(assert (forall ((?v0 S43) (?v1 S2) (?v2 S33)) (= (= (f49 (f54 (f61 ?v0) ?v1) ?v2) f1) (= (f47 ?v0 (f36 (f37 f38 ?v1) ?v2)) f1))))
(assert (forall ((?v0 S25) (?v1 S27) (?v2 S27)) (= (= (f47 (f62 (f63 ?v0) ?v1) ?v2) f1) (= (f32 ?v0 (f33 (f34 f35 ?v1) ?v2)) f1))))
(assert (forall ((?v0 S45) (?v1 S28) (?v2 S29)) (= (= (f64 ?v0 ?v1 ?v2) f1) (= (f49 ?v0 (f39 (f40 f41 ?v1) ?v2)) f1))))
(assert (forall ((?v0 S46) (?v1 S16) (?v2 S2)) (= (= (f65 ?v0 ?v1 ?v2) f1) (= (f50 ?v0 (f14 (f15 f16 ?v1) ?v2)) f1))))
(assert (forall ((?v0 S44) (?v1 S13) (?v2 S11)) (= (= (f50 (f66 (f67 ?v0) ?v1) ?v2) f1) (= (f48 ?v0 (f10 (f11 f12 ?v1) ?v2)) f1))))
(assert (forall ((?v0 S37) (?v1 S9) (?v2 S7)) (= (= (f48 (f68 (f69 ?v0) ?v1) ?v2) f1) (= (f42 ?v0 (f6 (f7 f8 ?v1) ?v2)) f1))))
(assert (forall ((?v0 S38) (?v1 S9) (?v2 S29) (?v3 S16)) (=> (not (= (f71 ?v0 (f25 ?v1)) f1)) (= (f70 (f58 (f59 (f60 ?v2) ?v1) ?v3) ?v0) (f70 ?v2 ?v0)))))
(assert (forall ((?v0 S9) (?v1 S13) (?v2 S16) (?v3 S2) (?v4 S28) (?v5 S29) (?v6 S47)) (let ((?v_0 (f28 f29 ?v1)) (?v_1 (f39 (f40 f41 ?v4) ?v5))) (=> (= (f26 f27 ?v0) ?v_0) (=> (= (f30 f31 ?v2) ?v_0) (=> (= (f72 ?v3) f1) (= (f73 (f33 (f34 f35 (f36 (f37 f38 (f4 f5 (f6 (f7 f8 ?v0) (f10 (f11 f12 ?v1) (f14 (f15 f16 ?v2) ?v3))))) ?v_1)) (f36 (f37 f38 ?v3) ?v_1)) (f74 (f75 ?v6))) f1)))))))
(assert (forall ((?v0 S26) (?v1 S42)) (= (= (f73 ?v0 (f76 ?v1)) f1) (= ?v1 (f45 f46 ?v0)))))
(assert (forall ((?v0 S20) (?v1 S3)) (= (= (f77 ?v0 (f78 ?v1)) f1) (= ?v1 (f23 f24 ?v0)))))
(assert (forall ((?v0 S38) (?v1 S40)) (= (= (f71 ?v0 (f79 ?v1)) f1) (= ?v1 (f43 f44 ?v0)))))
(assert (forall ((?v0 S9) (?v1 S13) (?v2 S16) (?v3 S2) (?v4 S28) (?v5 S29) (?v6 S2) (?v7 S28) (?v8 S29) (?v9 S47) (?v10 S29)) (let ((?v_0 (f28 f29 ?v1)) (?v_1 (f40 f41 ?v4)) (?v_2 (f37 f38 ?v6)) (?v_3 (f40 f41 ?v7)) (?v_4 (f74 (f75 ?v9)))) (=> (= (f26 f27 ?v0) ?v_0) (=> (= (f30 f31 ?v2) ?v_0) (=> (= (f80 ?v0) f1) (=> (= (f73 (f33 (f34 f35 (f36 (f37 f38 ?v3) (f39 ?v_1 (f58 (f59 (f60 ?v5) ?v0) ?v2)))) (f36 ?v_2 (f39 ?v_3 ?v8))) ?v_4) f1) (=> (= (f72 ?v6) f1) (=> (= ?v10 (f81 (f82 (f83 ?v8) ?v5) (f25 ?v0))) (= (f73 (f33 (f34 f35 (f36 (f37 f38 (f4 f5 (f6 (f7 f8 ?v0) (f10 (f11 f12 ?v1) (f14 (f15 f16 ?v2) ?v3))))) (f39 ?v_1 ?v5))) (f36 ?v_2 (f39 ?v_3 ?v10))) ?v_4) f1))))))))))
(check-sat)
(exit)
